NAME : portcgen-26-23
COMMENT : portcgen N=26, seed=23
TYPE : TSP
DIMENSION : 26
EDGE_WEIGHT_TYPE : EUC_2D
NODE_COORD_SECTION
1 122227 -28551
2 50722 44665
3 -70406 76634
4 204985 11117
5 323839 45377
6 234491 262192
7 410663 -223530
8 -103550 -29291
9 337973 -89349
10 70064 -143063
11 73944 11279
12 76434 -3070
13 -283337 -236894
14 -135536 -78289
15 -20149 -89430
16 6498 -223049
17 -261401 -123162
18 -161193 -46946
19 -101632 109375
20 -173605 40743
21 190782 148589
22 155975 -132883
23 -55750 -113566
24 -81925 -87024
25 -24040 397097
26 -70110 -7854
